Minimize
  37.293239 x(1) + 0 x(2) + 0 x(3) + 0 x(4) + 0 x(5) + [
   1.6713782 x(1) * x(3) + 10.7157094 x(2) ^ 2 ] / 2 
Subject To
 QCP_row_for_con1: [ - 0.0012547 x(1) * x(2)
   - 0.0047026 x(2) * x(3) - 0.0019085 x(2) * x(5) ] <= - 10.699039
 QCP_row_for_con2: [ 0.0012547 x(1) * x(2)
   + 0.0047026 x(2) * x(3) + 0.0019085 x(2) * x(5) ] <= 15.599039
 QCP_row_for_con3: [ - 0.0029955 x(1) * x(4)
   - 0.0021813 x(2) ^ 2 - 0.0071317 x(3) * x(4) ] <= - 9.48751
 QCP_row_for_con4: [ 0.0029955 x(1) * x(4)
   + 0.0021813 x(2) ^ 2 + 0.0071317 x(3) * x(4) ] <= 29.48751
 QCP_row_for_con5: [ 0.0006262 x(1) * x(5)
   - 0.0022053 x(2) * x(3) + 0.0056858 x(3) * x(4) ] <= 6.665593
 QCP_row_for_con6: [ - 0.0006262 x(1) * x(5)
   + 0.0022053 x(2) * x(3) - 0.0056858 x(3) * x(4) ] <= 85.334407
Bounds
 78 <= x(1) <= 102
 27 <= x(2) <= 45
 27 <= x(3) <= 45
 33 <= x(4) <= 45
 27 <= x(5) <= 45
End
